RST03
Position Depot: Random
Horizon for Depot: Small
Position of customers: Random
Distribution of the demand: Small
Width of time windows: Tight
Distribution of the service: Small

VEHICLE 
NUMBER 	 CAPACITY 
 12 	 	 31 
 
CUSTOMER
CUST NO. 	 XCOORD.  	 YCOORD. 	 DEMAND 	 READY TIME 	 DUE DATE 	 SERVICE TIME 
 0 	 	 525 	 	 772 	 	 0 	 	 0 	 	 1717 	 	 0 
  1 	 	 58 	 	 919 	 	 5 	 	 1142 	 	 1326 	 	 99 
  2 	 	 525 	 	 553 	 	 10 	 	 809 	 	 927 	 	 94 
  3 	 	 481 	 	 572 	 	 8 	 	 854 	 	 1052 	 	 89 
  4 	 	 926 	 	 83 	 	 9 	 	 799 	 	 876 	 	 69 
  5 	 	 234 	 	 798 	 	 5 	 	 446 	 	 525 	 	 63 
  6 	 	 183 	 	 671 	 	 8 	 	 1465 	 	 1618 	 	 90 
  7 	 	 131 	 	 846 	 	 9 	 	 376 	 	 569 	 	 91 
  8 	 	 211 	 	 499 	 	 10 	 	 1158 	 	 1247 	 	 93 
  9 	 	 989 	 	 758 	 	 10 	 	 1511 	 	 1590 	 	 74 
  10 	 	 455 	 	 367 	 	 10 	 	 279 	 	 452 	 	 90 
  11 	 	 499 	 	 789 	 	 5 	 	 449 	 	 571 	 	 61 
  12 	 	 518 	 	 623 	 	 8 	 	 73 	 	 204 	 	 55 
  13 	 	 983 	 	 851 	 	 7 	 	 1335 	 	 1518 	 	 69 
  14 	 	 869 	 	 690 	 	 6 	 	 1082 	 	 1147 	 	 70 
  15 	 	 81 	 	 150 	 	 9 	 	 1391 	 	 1474 	 	 61 
  16 	 	 681 	 	 793 	 	 5 	 	 1168 	 	 1354 	 	 50 
  17 	 	 62 	 	 70 	 	 9 	 	 753 	 	 925 	 	 53 
  18 	 	 702 	 	 886 	 	 9 	 	 1233 	 	 1419 	 	 54 
  19 	 	 470 	 	 465 	 	 9 	 	 1350 	 	 1404 	 	 67 
  20 	 	 364 	 	 459 	 	 5 	 	 677 	 	 743 	 	 61 
  21 	 	 181 	 	 775 	 	 9 	 	 181 	 	 378 	 	 75 
  22 	 	 198 	 	 582 	 	 10 	 	 413 	 	 502 	 	 81 
  23 	 	 125 	 	 356 	 	 9 	 	 1290 	 	 1465 	 	 88 
  24 	 	 105 	 	 736 	 	 9 	 	 1058 	 	 1153 	 	 82 
  25 	 	 935 	 	 316 	 	 5 	 	 602 	 	 674 	 	 89 
  26 	 	 119 	 	 585 	 	 7 	 	 1019 	 	 1181 	 	 86 
  27 	 	 757 	 	 594 	 	 7 	 	 838 	 	 961 	 	 98 
  28 	 	 518 	 	 449 	 	 9 	 	 845 	 	 1045 	 	 59 
  29 	 	 311 	 	 596 	 	 7 	 	 1648 	 	 1717 	 	 92 
  30 	 	 292 	 	 34 	 	 9 	 	 769 	 	 852 	 	 81 
  31 	 	 596 	 	 966 	 	 10 	 	 1585 	 	 1717 	 	 92 
  32 	 	 268 	 	 978 	 	 5 	 	 1121 	 	 1245 	 	 77 
  33 	 	 227 	 	 249 	 	 8 	 	 1006 	 	 1205 	 	 54 
  34 	 	 411 	 	 690 	 	 6 	 	 489 	 	 549 	 	 93 
  35 	 	 259 	 	 786 	 	 6 	 	 659 	 	 729 	 	 66 
  36 	 	 390 	 	 106 	 	 6 	 	 573 	 	 747 	 	 70 
  37 	 	 473 	 	 416 	 	 5 	 	 944 	 	 1143 	 	 79 
  38 	 	 998 	 	 36 	 	 8 	 	 812 	 	 962 	 	 86 
  39 	 	 584 	 	 696 	 	 7 	 	 1221 	 	 1303 	 	 58 
  40 	 	 878 	 	 867 	 	 8 	 	 348 	 	 402 	 	 91 
  41 	 	 858 	 	 54 	 	 8 	 	 732 	 	 870 	 	 82 
  42 	 	 838 	 	 456 	 	 7 	 	 1595 	 	 1692 	 	 94 
  43 	 	 681 	 	 983 	 	 6 	 	 1405 	 	 1567 	 	 89 
  44 	 	 219 	 	 677 	 	 6 	 	 730 	 	 864 	 	 99 
  45 	 	 968 	 	 725 	 	 8 	 	 511 	 	 631 	 	 60 
  46 	 	 307 	 	 686 	 	 5 	 	 1474 	 	 1664 	 	 54 
  47 	 	 541 	 	 633 	 	 8 	 	 1074 	 	 1263 	 	 65 
  48 	 	 97 	 	 511 	 	 5 	 	 831 	 	 1010 	 	 84 
  49 	 	 170 	 	 115 	 	 10 	 	 1254 	 	 1387 	 	 83 
  50 	 	 731 	 	 800 	 	 8 	 	 1137 	 	 1244 	 	 83 
 